p cnf 84 275
3 -1 0
3 2 0
1 -2 -3 0
6 4 0
6 5 0
-4 -5 -6 0
7 -3 0
7 -6 0
3 6 -7 0
9 8 0
9 -2 0
-8 2 -9 0
-10 9 0
-10 8 0
-9 -8 10 0
-4 10 -11 0
4 -10 -11 0
-4 -10 11 0
4 10 11 0
12 -7 0
12 11 0
7 -11 -12 0
2 -13 -14 0
-2 13 -14 0
2 13 14 0
-2 -13 14 0
16 14 0
16 -15 0
-14 15 -16 0
19 17 0
19 18 0
-17 -18 -19 0
-16 -19 -20 0
16 19 -20 0
-16 19 20 0
16 -19 20 0
-9 -20 -21 0
9 20 -21 0
-9 20 21 0
9 -20 21 0
22 20 0
22 13 0
-20 -13 -22 0
23 14 0
23 22 0
-14 -22 -23 0
-24 23 0
-24 -1 0
-23 1 24 0
25 24 0
25 -1 0
-24 1 -25 0
-25 6 -26 0
25 -6 -26 0
-25 -6 26 0
25 6 26 0
-27 21 0
-27 26 0
-21 -26 27 0
-29 -28 0
-29 -18 0
28 18 29 0
30 -27 0
30 29 0
27 -29 -30 0
11 28 -31 0
-11 -28 -31 0
11 -28 31 0
-11 28 31 0
-19 31 -32 0
19 -31 -32 0
-19 -31 32 0
19 31 32 0
-34 15 0
-34 33 0
-15 -33 34 0
-22 -34 -35 0
22 34 -35 0
-22 34 35 0
22 -34 35 0
36 -15 0
36 -33 0
15 33 -36 0
-37 -13 0
-37 36 0
13 -36 37 0
38 19 0
38 37 0
-19 -37 -38 0
-35 38 -39 0
35 -38 -39 0
-35 -38 39 0
35 38 39 0
-40 39 0
-40 -34 0
-39 34 40 0
-41 14 0
-41 -16 0
-14 16 41 0
-43 -41 0
-43 42 0
41 -42 43 0
-44 -40 0
-44 -43 0
40 43 44 0
32 44 -45 0
-32 -44 -45 0
32 -44 45 0
-32 44 45 0
46 17 0
46 -7 0
-17 7 -46 0
47 45 0
47 46 0
-45 -46 -47 0
48 -30 0
48 -47 0
30 47 -48 0
25 18 -49 0
-25 -18 -49 0
25 -18 49 0
-25 18 49 0
50 48 0
50 49 0
-48 -49 -50 0
-51 12 0
-51 50 0
-12 -50 51 0
-52 15 0
-52 -18 0
-15 18 52 0
53 5 0
53 3 0
-5 -3 -53 0
-54 52 0
-54 -53 0
-52 53 54 0
-55 51 0
-55 -54 0
-51 54 55 0
57 -9 0
57 -56 0
9 56 -57 0
59 56 0
59 58 0
-56 -58 -59 0
-57 59 -60 0
57 -59 -60 0
-57 -59 60 0
57 59 60 0
-61 55 0
-61 60 0
-55 -60 61 0
-62 24 0
-62 -34 0
-24 34 62 0
-9 -62 -63 0
9 62 -63 0
-9 62 63 0
9 -62 63 0
64 6 0
64 -23 0
-6 23 -64 0
-19 64 -65 0
19 -64 -65 0
-19 -64 65 0
19 64 65 0
-65 34 -66 0
65 -34 -66 0
-65 -34 66 0
65 34 66 0
63 66 -67 0
-63 -66 -67 0
63 -66 67 0
-63 66 67 0
-10 -68 0
10 -68 0
69 -67 0
69 68 0
67 -68 -69 0
70 -28 0
70 -56 0
28 56 -70 0
-71 -23 0
-71 -70 0
23 70 71 0
-72 -14 0
-72 34 0
14 -34 72 0
-72 16 -73 0
72 -16 -73 0
-72 -16 73 0
72 16 73 0
74 -71 0
74 73 0
71 -73 -74 0
-75 23 0
-75 22 0
-23 -22 75 0
76 75 0
76 8 0
-75 -8 -76 0
1 -4 -77 0
-1 4 -77 0
1 4 77 0
-1 -4 77 0
-78 -37 0
-78 20 0
37 -20 78 0
-78 24 -79 0
78 -24 -79 0
-78 -24 79 0
78 24 79 0
-80 77 0
-80 79 0
-77 -79 80 0
-81 -76 0
-81 -80 0
76 80 81 0
82 74 0
82 81 0
-74 -81 -82 0
-83 -69 0
-83 82 0
69 -82 83 0
84 61 0
84 -83 0
-61 83 -84 0
73 -25 -24 29 0
36 -17 0
-25 26 70 -33 0
15 26 -13 82 0
-18 -4 0
10 -22 32 51 83 0
14 -31 0
57 2 0
-3 4 -36 -14 70 60 0
4 -68 69 0
-35 34 78 55 -32 0
-45 -55 73 61 35 79 0
-21 50 -77 0
79 67 -18 16 4 0
-3 13 67 0
-79 32 9 84 -66 0
30 -28 60 39 0
-16 -78 61 0
39 81 -8 -70 0
-79 -32 0
-42 -25 -47 76 60 0
66 -11 0
-11 76 0
-79 -15 0
-24 -7 37 47 0
81 -62 0
-11 -36 15 37 0
-56 -13 44 -65 0
-42 -23 -2 -26 0
14 4 9 0
73 -70 18 0
11 -66 76 39 55 0
58 12 -22 -19 -25 57 0
41 -77 0
30 43 23 -49 -40 -53 0
-49 -9 -17 -46 77 0
46 -59 25 51 0
27 -10 41 21 -28 0
30 -82 0
-27 -71 34 84 43 0
41 -12 -73 52 0
-33 77 -4 54 41 0
-63 23 -27 77 -32 50 0
36 58 -67 15 -72 -82 0
-19 73 -30 34 0
71 73 -30 46 -48 -63 0
84 0
